<number of tasks>
58

<cycle time>
104

<task times>
1 10
2 53
3 41
4 36
5 35
6 17
7 34
8 23
9 14
10 52
11 33
12 34
13 12
14 52
15 12
16 33
17 44
18 7
19 15
20 13
21 29
22 37
23 43
24 23
25 24
26 9
27 16
28 12
29 26
30 22
31 51
32 47
33 34
34 23
35 12
36 52
37 12
38 33
39 44
40 7
41 15
42 13
43 29
44 37
45 43
46 23
47 24
48 9
49 16
50 12
51 26
52 12
53 52
54 12
55 33
56 44
57 7
58 15

<precedence relations>
1,9
2,25
3,21
3,22
4,10
5,36
6,23
6,24
7,43
8,44
9,11
11,13
11,14
11,15
12,17
13,17
14,17
15,17
16,18
17,20
18,19
19,23
20,21
20,25
21,26
21,44
22,27
23,31
24,31
25,38
26,29
27,30
28,32
28,33
29,31
30,34
31,36
32,45
33,35
34,36
35,43
36,37
36,38
37,39
37,40
37,41
38,52
39,43
40,43
41,42
42,43
43,45
44,45
45,46
45,48
45,49
46,47
46,50
47,51
48,55
49,58
50,58
51,52
52,53
53,54
54,55
54,56
55,57
56,57
57,58

<setup times forward>
1,2:19
1,3:10
1,4:12
1,5:11
1,6:10
1,7:7
1,8:14
1,10:12
1,12:10
1,18:14
1,19:7
1,22:8
1,23:7
1,24:8
1,27:16
1,28:10
1,30:16
1,33:11
1,34:16
1,35:22
2,1:19
2,3:9
2,4:7
2,5:8
2,6:9
2,7:12
2,8:5
2,9:19
2,10:7
2,11:5
2,12:9
2,13:12
2,14:5
2,15:5
2,16:19
2,17:11
2,18:5
2,19:12
2,20:3
2,21:3
2,22:11
2,23:12
2,24:11
2,25:14
2,26:8
2,27:3
2,28:9
2,29:8
2,30:3
2,32:19
2,33:8
2,34:3
2,35:3
2,36:14
2,37:14
2,39:5
2,40:3
2,41:14
2,42:3
2,43:3
2,44:5
2,45:3
2,46:12
2,47:12
2,48:12
2,49:7
2,50:12
2,51:16
3,1:10
3,2:9
3,4:2
3,5:1
3,7:3
3,8:4
3,9:10
3,10:2
3,11:4
3,13:3
3,14:4
3,15:4
3,16:10
3,17:2
3,18:4
3,19:3
3,20:6
3,21:6
3,22:2
3,23:3
3,24:2
3,25:5
3,32:10
3,33:1
3,35:12
4,1:12
4,2:7
4,3:2
4,5:1
4,6:2
4,7:5
4,8:2
4,9:12
4,11:2
4,12:2
4,13:5
4,14:2
4,15:2
4,16:12
4,17:4
4,18:2
4,19:5
4,20:4
4,21:4
4,22:4
4,23:5
4,24:4
4,25:7
4,26:1
4,27:4
4,28:2
4,29:1
4,30:4
4,31:7
4,32:12
4,33:1
4,34:4
4,35:10
4,36:7
4,37:7
4,38:5
4,39:2
4,40:10
4,41:7
4,42:10
4,43:10
4,44:2
4,45:10
4,46:5
4,47:5
4,48:5
4,50:5
4,51:9
4,52:9
4,53:9
4,54:9
4,55:12
4,56:12
4,57:12
4,58:12
5,1:11
5,2:8
5,3:1
5,4:1
5,6:1
5,7:4
5,8:3
5,9:11
5,10:1
5,11:3
5,12:1
5,13:4
5,14:3
5,15:3
5,16:11
5,17:3
5,18:3
5,19:4
5,20:5
5,21:5
5,22:3
5,23:4
5,24:3
5,25:6
5,27:5
5,28:1
5,30:5
5,31:8
5,32:11
5,34:5
5,35:11
5,36:6
5,44:3
6,1:10
6,2:9
6,4:2
6,5:1
6,7:3
6,8:4
6,9:10
6,10:2
6,11:4
6,13:3
6,14:4
6,15:4
6,16:10
6,17:2
6,18:4
6,19:3
6,20:6
6,21:6
6,22:2
6,23:3
6,24:2
6,25:5
6,26:1
6,27:6
6,29:1
6,30:6
6,32:10
6,33:1
6,34:6
6,35:12
6,44:4
7,1:7
7,2:12
7,3:3
7,4:5
7,5:4
7,6:3
7,8:7
7,9:7
7,10:5
7,11:7
7,12:3
7,14:7
7,15:7
7,16:7
7,17:1
7,18:7
7,20:9
7,21:9
7,22:1
7,24:1
7,25:2
7,26:4
7,27:9
7,28:3
7,29:4
7,30:9
7,31:12
7,32:7
7,33:4
7,34:9
7,35:15
7,36:2
7,37:2
7,39:7
7,40:15
7,41:2
7,42:15
7,43:15
7,44:7
8,1:14
8,2:5
8,3:4
8,4:2
8,5:3
8,6:4
8,7:7
8,9:14
8,10:2
8,12:4
8,13:7
8,16:14
8,17:6
8,19:7
8,20:2
8,21:2
8,22:6
8,23:7
8,24:6
8,25:9
8,26:3
8,27:2
8,28:4
8,29:3
8,30:2
8,31:5
8,32:14
8,33:3
8,34:2
8,35:8
8,36:9
8,37:9
8,38:7
8,40:8
8,41:9
8,42:8
8,43:8
9,2:19
9,3:10
9,4:12
9,5:11
9,6:10
9,7:7
9,8:14
9,10:12
9,11:14
9,12:10
9,18:14
9,19:7
9,22:8
9,23:7
9,24:8
9,27:16
9,28:10
9,30:16
9,33:11
9,34:16
9,35:22
10,1:12
10,2:7
10,3:2
10,5:1
10,6:2
10,7:5
10,8:2
10,9:12
10,11:2
10,12:2
10,13:5
10,14:2
10,15:2
10,16:12
10,17:4
10,18:2
10,19:5
10,20:4
10,21:4
10,22:4
10,23:5
10,24:4
10,25:7
10,26:1
10,27:4
10,28:2
10,29:1
10,30:4
10,31:7
10,32:12
10,33:1
10,34:4
10,35:10
10,36:7
10,37:7
10,38:5
10,39:2
10,40:10
10,41:7
10,42:10
10,43:10
10,44:2
10,45:10
10,46:5
10,47:5
10,48:5
10,50:5
10,51:9
10,52:9
10,53:9
10,54:9
10,55:12
10,56:12
10,57:12
10,58:12
11,2:5
11,3:4
11,4:2
11,5:3
11,6:4
11,7:7
11,10:2
11,12:4
11,13:7
11,16:14
11,19:7
11,22:6
11,23:7
11,24:6
11,27:2
11,28:4
11,30:2
11,32:14
11,33:3
11,34:2
11,35:8
12,1:10
12,2:9
12,4:2
12,5:1
12,7:3
12,8:4
12,9:10
12,10:2
12,11:4
12,13:3
12,14:4
12,15:4
12,16:10
12,17:2
12,18:4
12,19:3
12,22:2
12,23:3
12,24:2
12,27:6
12,30:6
12,32:10
12,33:1
12,34:6
12,35:12
13,2:12
13,3:3
13,4:5
13,5:4
13,6:3
13,8:7
13,10:5
13,12:3
13,14:7
13,15:7
13,16:7
13,17:1
13,18:7
13,22:1
13,24:1
13,27:9
13,28:3
13,30:9
13,32:7
13,33:4
13,34:9
13,35:15
14,2:5
14,3:4
14,4:2
14,5:3
14,6:4
14,7:7
14,10:2
14,12:4
14,13:7
14,16:14
14,17:6
14,19:7
14,22:6
14,23:7
14,24:6
14,27:2
14,28:4
14,30:2
14,32:14
14,33:3
14,34:2
14,35:8
15,2:5
15,3:4
15,4:2
15,5:3
15,6:4
15,7:7
15,10:2
15,12:4
15,13:7
15,16:14
15,17:6
15,19:7
15,22:6
15,23:7
15,24:6
15,27:2
15,28:4
15,30:2
15,32:14
15,33:3
15,34:2
15,35:8
16,2:19
16,3:10
16,4:12
16,5:11
16,6:10
16,7:7
16,8:14
16,10:12
16,11:14
16,12:10
16,13:7
16,14:14
16,15:14
16,17:8
16,18:14
16,20:16
16,21:16
16,22:8
16,24:8
16,25:5
16,26:11
16,27:16
16,28:10
16,29:11
16,30:16
16,33:11
16,34:16
16,35:22
16,44:14
17,2:11
17,3:2
17,4:4
17,5:3
17,6:2
17,7:1
17,8:6
17,10:4
17,16:8
17,18:6
17,19:1
17,20:8
17,23:1
17,27:8
17,28:2
17,30:8
17,32:8
17,33:3
17,34:8
17,35:14
18,1:14
18,2:5
18,3:4
18,4:2
18,5:3
18,6:4
18,7:7
18,9:14
18,10:2
18,12:4
18,13:7
18,17:6
18,19:7
18,20:2
18,21:2
18,22:6
18,24:6
18,25:9
18,26:3
18,27:2
18,28:4
18,29:3
18,30:2
18,32:14
18,33:3
18,34:2
18,35:8
19,1:7
19,2:12
19,3:3
19,4:5
19,5:4
19,6:3
19,8:7
19,9:7
19,10:5
19,11:7
19,12:3
19,14:7
19,15:7
19,17:1
19,20:9
19,21:9
19,22:1
19,24:1
19,25:2
19,26:4
19,27:9
19,28:3
19,29:4
19,30:9
19,32:7
19,33:4
19,34:9
19,35:15
19,44:7
20,2:3
20,3:6
20,4:4
20,5:5
20,6:6
20,7:9
20,8:2
20,10:4
20,16:16
20,18:2
20,19:9
20,22:8
20,23:9
20,24:8
20,25:11
20,28:6
20,32:16
20,33:5
20,35:6
21,2:3
21,4:4
21,5:5
21,6:6
21,7:9
21,8:2
21,10:4
21,16:16
21,18:2
21,19:9
21,22:8
21,23:9
21,24:8
21,25:11
21,26:5
21,28:6
21,32:16
21,33:5
21,35:6
21,44:2
22,1:8
22,2:11
22,4:4
22,5:3
22,6:2
22,7:1
22,8:6
22,9:8
22,10:4
22,11:6
22,12:2
22,13:1
22,14:6
22,15:6
22,16:8
22,18:6
22,19:1
22,20:8
22,21:8
22,23:1
22,25:3
22,26:3
22,27:8
22,28:2
22,29:3
22,31:11
22,32:8
22,33:3
22,35:14
22,44:6
23,1:7
23,2:12
23,3:3
23,4:5
23,5:4
23,8:7
23,9:7
23,10:5
23,11:7
23,12:3
23,14:7
23,15:7
23,17:1
23,20:9
23,21:9
23,22:1
23,24:1
23,25:2
23,26:4
23,27:9
23,28:3
23,29:4
23,30:9
23,31:12
23,32:7
23,33:4
23,34:9
23,35:15
23,44:7
24,1:8
24,2:11
24,3:2
24,4:4
24,5:3
24,7:1
24,8:6
24,9:8
24,10:4
24,11:6
24,12:2
24,13:1
24,14:6
24,15:6
24,16:8
24,18:6
24,19:1
24,20:8
24,21:8
24,23:1
24,25:3
24,26:3
24,27:8
24,28:2
24,29:3
24,30:8
24,31:11
24,32:8
24,33:3
24,34:8
24,35:14
24,44:6
25,3:5
25,4:7
25,5:6
25,6:5
25,7:2
25,8:9
25,10:7
25,16:5
25,18:9
25,19:2
25,21:11
25,22:3
25,23:2
25,24:3
25,26:6
25,27:11
25,28:5
25,29:6
25,30:11
25,31:14
25,32:5
25,33:6
25,34:11
25,35:17
25,38:2
25,39:9
25,40:17
25,42:17
25,43:17
25,44:9
25,45:17
25,46:2
25,47:2
25,48:2
25,49:7
25,50:2
25,51:2
26,2:8
26,4:1
26,6:1
26,7:4
26,8:3
26,10:1
26,16:11
26,18:3
26,19:4
26,22:3
26,23:4
26,24:3
26,25:6
26,27:5
26,28:1
26,30:5
26,32:11
26,34:5
26,35:11
26,44:3
27,1:16
27,2:3
27,4:4
27,5:5
27,6:6
27,7:9
27,8:2
27,9:16
27,10:4
27,11:2
27,12:6
27,13:9
27,14:2
27,15:2
27,16:16
27,17:8
27,18:2
27,19:9
27,23:9
27,24:8
27,25:11
27,26:5
27,28:6
27,29:5
27,31:3
27,32:16
27,33:5
27,35:6
27,44:2
28,1:10
28,2:9
28,4:2
28,5:1
28,7:3
28,8:4
28,9:10
28,10:2
28,11:4
28,13:3
28,14:4
28,15:4
28,16:10
28,17:2
28,18:4
28,19:3
28,20:6
28,21:6
28,22:2
28,23:3
28,24:2
28,25:5
28,26:1
28,27:6
28,29:1
28,30:6
28,31:9
28,32:10
28,33:1
28,34:6
28,36:5
28,37:5
28,38:3
28,39:4
28,40:12
28,41:5
28,42:12
28,44:4
29,2:8
29,4:1
29,6:1
29,7:4
29,8:3
29,10:1
29,16:11
29,18:3
29,19:4
29,22:3
29,23:4
29,24:3
29,25:6
29,27:5
29,28:1
29,30:5
29,31:8
29,32:11
29,34:5
29,35:11
29,44:3
30,1:16
30,2:3
30,4:4
30,5:5
30,6:6
30,7:9
30,8:2
30,9:16
30,10:4
30,11:2
30,12:6
30,13:9
30,14:2
30,15:2
30,16:16
30,17:8
30,18:2
30,19:9
30,23:9
30,24:8
30,25:11
30,26:5
30,28:6
30,29:5
30,31:3
30,32:16
30,33:5
30,35:6
30,44:2
31,4:7
31,5:8
31,7:12
31,8:5
31,10:7
31,22:11
31,25:14
31,27:3
31,28:9
31,30:3
31,32:19
31,33:8
31,34:3
31,35:3
31,36:14
31,44:5
32,2:19
32,3:10
32,4:12
32,5:11
32,6:10
32,7:7
32,8:14
32,10:12
32,11:14
32,12:10
32,13:7
32,14:14
32,15:14
32,17:8
32,18:14
32,19:7
32,20:16
32,21:16
32,22:8
32,23:7
32,24:8
32,25:5
32,26:11
32,27:16
32,29:11
32,30:16
32,31:19
32,33:11
32,34:16
32,35:22
32,36:5
32,37:5
32,38:7
32,39:14
32,40:22
32,41:5
32,42:22
32,43:22
32,44:14
32,45:22
33,1:11
33,2:8
33,3:1
33,4:1
33,6:1
33,7:4
33,8:3
33,9:11
33,10:1
33,11:3
33,12:1
33,13:4
33,14:3
33,15:3
33,16:11
33,17:3
33,18:3
33,19:4
33,20:5
33,21:5
33,22:3
33,23:4
33,24:3
33,25:6
33,27:5
33,30:5
33,31:8
33,32:11
33,34:5
33,35:11
33,36:6
33,37:6
33,38:4
33,39:3
33,40:11
33,41:6
33,42:11
33,44:3
34,1:16
34,2:3
34,4:4
34,5:5
34,6:6
34,7:9
34,8:2
34,9:16
34,10:4
34,11:2
34,12:6
34,13:9
34,14:2
34,15:2
34,16:16
34,17:8
34,18:2
34,19:9
34,23:9
34,24:8
34,25:11
34,26:5
34,28:6
34,29:5
34,31:3
34,32:16
34,33:5
34,35:6
34,36:11
34,44:2
35,1:22
35,2:3
35,3:12
35,4:10
35,5:11
35,6:12
35,7:15
35,8:8
35,9:22
35,10:10
35,11:8
35,12:12
35,13:15
35,14:8
35,15:8
35,16:22
35,17:14
35,18:8
35,19:15
35,20:6
35,21:6
35,22:14
35,23:15
35,24:14
35,25:17
35,26:11
35,27:6
35,29:11
35,30:6
35,31:3
35,32:22
35,34:6
35,36:17
35,37:17
35,38:15
35,39:8
35,41:17
35,44:8
36,2:14
36,4:7
36,7:2
36,8:9
36,10:7
36,28:5
36,32:5
36,33:6
36,35:17
36,38:2
36,44:9
37,2:14
37,4:7
37,7:2
37,8:9
37,10:7
37,28:5
37,32:5
37,33:6
37,35:17
37,38:2
37,39:9
37,40:17
37,44:9
38,4:5
38,8:7
38,10:5
38,28:3
38,32:7
38,33:4
38,35:15
38,37:2
38,39:7
38,40:15
38,41:2
38,42:15
38,43:15
38,44:7
38,45:15
38,49:5
38,51:4
38,52:4
39,2:5
39,4:2
39,7:7
39,10:2
39,25:9
39,28:4
39,32:14
39,33:3
39,35:8
39,38:7
39,40:8
39,41:9
39,42:8
39,43:8
40,2:3
40,4:10
40,7:15
40,8:8
40,10:10
40,25:17
40,28:12
40,32:22
40,33:11
40,38:15
40,39:8
40,41:17
40,44:8
41,2:14
41,4:7
41,7:2
41,8:9
41,10:7
41,28:5
41,32:5
41,33:6
41,35:17
41,38:2
41,39:9
41,40:17
41,42:17
41,44:9
42,2:3
42,4:10
42,7:15
42,8:8
42,10:10
42,25:17
42,28:12
42,32:22
42,33:11
42,38:15
42,39:8
42,44:8
43,2:3
43,4:10
43,8:8
43,10:10
43,25:17
43,32:22
43,38:15
43,44:8
44,2:5
44,4:2
44,5:3
44,6:4
44,7:7
44,10:2
44,16:14
44,19:7
44,22:6
44,23:7
44,24:6
44,25:9
44,26:3
44,27:2
44,28:4
44,29:3
44,30:2
44,31:5
44,32:14
44,33:3
44,34:2
44,35:8
44,36:9
44,37:9
44,38:7
44,40:8
44,41:9
44,42:8
44,43:8
44,45:8
45,2:3
45,4:10
45,10:10
45,25:17
45,38:15
45,46:15
45,48:15
45,49:10
46,2:12
46,4:5
46,10:5
46,25:2
46,49:5
47,2:12
47,4:5
47,10:5
47,25:2
47,49:5
47,51:4
48,2:12
48,4:5
48,10:5
48,25:2
48,49:5
48,51:4
48,52:4
48,53:4
48,54:4
48,55:17
48,56:17
49,2:7
49,25:7
49,38:5
49,46:5
49,47:5
49,48:5
49,50:5
49,51:9
49,52:9
49,53:9
49,54:9
49,55:12
49,56:12
49,57:12
49,58:12
50,2:12
50,4:5
50,10:5
50,25:2
50,49:5
50,51:4
50,52:4
50,53:4
50,54:4
50,55:17
50,56:17
50,57:17
50,58:17
51,2:16
51,4:9
51,10:9
51,25:2
51,38:4
51,48:4
51,49:9
51,50:4
52,4:9
52,10:9
52,48:4
52,49:9
52,50:4
53,4:9
53,10:9
53,48:4
53,49:9
53,50:4
54,4:9
54,10:9
54,48:4
54,49:9
54,50:4
54,55:21
54,56:21
55,4:12
55,10:12
55,49:12
55,50:17
56,4:12
56,10:12
56,48:17
56,49:12
56,50:17
57,4:12
57,10:12
57,49:12
57,50:17
58,4:12
58,10:12

<setup times backward>
1,2:19
1,3:10
1,4:12
1,5:11
1,6:10
1,7:7
1,8:14
1,10:12
1,12:10
1,18:14
1,19:7
1,22:8
1,23:7
1,24:8
1,27:16
1,28:10
1,30:16
1,33:11
1,34:16
1,35:22
2,35:3
2,40:3
2,42:3
2,43:3
2,45:3
3,2:9
3,4:2
3,5:1
3,8:4
3,10:2
3,11:4
3,14:4
3,15:4
3,18:4
3,20:6
3,33:1
3,35:12
4,2:7
4,8:2
4,11:2
4,14:2
4,15:2
4,18:2
4,20:4
4,21:4
4,27:4
4,30:4
4,31:7
4,34:4
4,35:10
4,39:2
4,40:10
4,42:10
4,43:10
4,44:2
4,45:10
4,55:12
4,56:12
4,57:12
4,58:12
5,2:8
5,4:1
5,8:3
5,10:1
5,11:3
5,14:3
5,15:3
5,18:3
5,20:5
5,21:5
5,27:5
5,30:5
5,31:8
5,34:5
5,35:11
5,44:3
6,2:9
6,4:2
6,5:1
6,8:4
6,10:2
6,11:4
6,14:4
6,15:4
6,18:4
6,20:6
6,21:6
6,26:1
6,27:6
6,29:1
6,30:6
6,33:1
6,34:6
6,35:12
6,44:4
7,2:12
7,3:3
7,4:5
7,5:4
7,6:3
7,8:7
7,10:5
7,11:7
7,12:3
7,14:7
7,15:7
7,17:1
7,18:7
7,20:9
7,21:9
7,22:1
7,24:1
7,26:4
7,27:9
7,28:3
7,29:4
7,30:9
7,31:12
7,33:4
7,34:9
7,35:15
7,39:7
7,40:15
7,42:15
7,44:7
8,2:5
8,20:2
8,21:2
8,27:2
8,30:2
8,31:5
8,34:2
8,35:8
8,40:8
8,42:8
8,43:8
9,2:19
9,3:10
9,4:12
9,5:11
9,6:10
9,7:7
9,8:14
9,10:12
9,12:10
9,18:14
9,19:7
9,22:8
9,23:7
9,24:8
9,27:16
9,28:10
9,30:16
9,33:11
9,34:16
9,35:22
10,2:7
10,8:2
10,11:2
10,14:2
10,15:2
10,18:2
10,20:4
10,21:4
10,27:4
10,30:4
10,31:7
10,34:4
10,35:10
10,39:2
10,40:10
10,42:10
10,43:10
10,44:2
10,45:10
10,55:12
10,56:12
10,57:12
10,58:12
11,2:5
11,27:2
11,30:2
11,34:2
11,35:8
12,2:9
12,4:2
12,5:1
12,8:4
12,10:2
12,11:4
12,14:4
12,15:4
12,18:4
12,27:6
12,30:6
12,33:1
12,34:6
12,35:12
13,2:12
13,3:3
13,4:5
13,5:4
13,6:3
13,8:7
13,10:5
13,11:7
13,12:3
13,14:7
13,15:7
13,18:7
13,22:1
13,24:1
13,27:9
13,28:3
13,30:9
13,33:4
13,34:9
13,35:15
14,2:5
14,27:2
14,30:2
14,34:2
14,35:8
15,2:5
15,27:2
15,30:2
15,34:2
15,35:8
16,2:19
16,3:10
16,4:12
16,5:11
16,6:10
16,7:7
16,8:14
16,10:12
16,11:14
16,12:10
16,13:7
16,14:14
16,15:14
16,17:8
16,20:16
16,21:16
16,22:8
16,24:8
16,25:5
16,26:11
16,27:16
16,28:10
16,29:11
16,30:16
16,33:11
16,34:16
16,35:22
16,44:14
17,2:11
17,3:2
17,4:4
17,5:3
17,6:2
17,8:6
17,10:4
17,11:6
17,12:2
17,14:6
17,15:6
17,18:6
17,27:8
17,28:2
17,30:8
17,33:3
17,34:8
17,35:14
18,2:5
18,20:2
18,21:2
18,27:2
18,30:2
18,34:2
18,35:8
19,2:12
19,3:3
19,4:5
19,5:4
19,6:3
19,8:7
19,10:5
19,11:7
19,12:3
19,14:7
19,15:7
19,17:1
19,18:7
19,20:9
19,21:9
19,22:1
19,24:1
19,26:4
19,27:9
19,28:3
19,29:4
19,30:9
19,33:4
19,34:9
19,35:15
19,44:7
20,2:3
20,35:6
21,2:3
21,35:6
22,2:11
22,3:2
22,4:4
22,5:3
22,6:2
22,8:6
22,10:4
22,11:6
22,12:2
22,14:6
22,15:6
22,18:6
22,20:8
22,21:8
22,26:3
22,28:2
22,29:3
22,31:11
22,33:3
22,35:14
22,44:6
23,2:12
23,3:3
23,4:5
23,5:4
23,6:3
23,8:7
23,10:5
23,11:7
23,12:3
23,14:7
23,15:7
23,17:1
23,18:7
23,20:9
23,21:9
23,22:1
23,24:1
23,26:4
23,27:9
23,28:3
23,29:4
23,30:9
23,33:4
23,34:9
23,35:15
23,44:7
24,2:11
24,3:2
24,4:4
24,5:3
24,6:2
24,8:6
24,10:4
24,11:6
24,12:2
24,14:6
24,15:6
24,18:6
24,20:8
24,21:8
24,26:3
24,27:8
24,28:2
24,29:3
24,30:8
24,33:3
24,34:8
24,35:14
24,44:6
25,2:14
25,3:5
25,4:7
25,5:6
25,6:5
25,7:2
25,8:9
25,10:7
25,11:9
25,12:5
25,13:2
25,14:9
25,15:9
25,17:3
25,18:9
25,19:2
25,20:11
25,21:11
25,22:3
25,23:2
25,24:3
25,26:6
25,27:11
25,28:5
25,29:6
25,30:11
25,31:14
25,33:6
25,34:11
25,35:17
25,39:9
25,40:17
25,42:17
25,43:17
25,44:9
25,45:17
25,46:2
25,47:2
25,48:2
25,49:7
25,50:2
26,2:8
26,4:1
26,8:3
26,10:1
26,11:3
26,14:3
26,15:3
26,18:3
26,20:5
26,21:5
26,27:5
26,30:5
26,34:5
26,35:11
26,44:3
27,2:3
27,31:3
27,35:6
28,2:9
28,4:2
28,5:1
28,8:4
28,10:2
28,11:4
28,14:4
28,15:4
28,18:4
28,20:6
28,21:6
28,26:1
28,27:6
28,29:1
28,30:6
28,31:9
28,34:6
28,39:4
28,40:12
28,42:12
28,44:4
29,2:8
29,4:1
29,8:3
29,10:1
29,11:3
29,14:3
29,15:3
29,18:3
29,20:5
29,21:5
29,27:5
29,30:5
29,34:5
29,35:11
29,44:3
30,2:3
30,31:3
30,35:6
31,35:3
32,2:19
32,3:10
32,4:12
32,5:11
32,6:10
32,7:7
32,8:14
32,10:12
32,11:14
32,12:10
32,13:7
32,14:14
32,15:14
32,17:8
32,18:14
32,19:7
32,20:16
32,21:16
32,22:8
32,23:7
32,24:8
32,25:5
32,26:11
32,27:16
32,28:10
32,29:11
32,30:16
32,31:19
32,33:11
32,34:16
32,35:22
32,36:5
32,37:5
32,38:7
32,39:14
32,40:22
32,41:5
32,42:22
32,43:22
32,44:14
33,2:8
33,4:1
33,8:3
33,10:1
33,11:3
33,14:3
33,15:3
33,18:3
33,20:5
33,21:5
33,27:5
33,30:5
33,31:8
33,34:5
33,39:3
33,40:11
33,42:11
33,44:3
34,2:3
34,31:3
34,35:6
36,2:14
36,3:5
36,4:7
36,5:6
36,6:5
36,7:2
36,8:9
36,10:7
36,11:9
36,12:5
36,13:2
36,14:9
36,15:9
36,17:3
36,18:9
36,19:2
36,20:11
36,21:11
36,22:3
36,23:2
36,24:3
36,26:6
36,27:11
36,28:5
36,29:6
36,30:11
36,31:14
36,33:6
36,34:11
36,35:17
36,44:9
37,2:14
37,3:5
37,4:7
37,5:6
37,6:5
37,7:2
37,8:9
37,10:7
37,11:9
37,12:5
37,13:2
37,14:9
37,15:9
37,17:3
37,18:9
37,19:2
37,20:11
37,21:11
37,22:3
37,23:2
37,24:3
37,26:6
37,27:11
37,28:5
37,29:6
37,30:11
37,31:14
37,33:6
37,34:11
37,35:17
37,38:2
37,44:9
38,2:12
38,3:3
38,4:5
38,5:4
38,6:3
38,8:7
38,10:5
38,11:7
38,12:3
38,14:7
38,15:7
38,17:1
38,18:7
38,20:9
38,21:9
38,22:1
38,24:1
38,26:4
38,27:9
38,28:3
38,29:4
38,30:9
38,31:12
38,33:4
38,34:9
38,35:15
38,39:7
38,40:15
38,42:15
38,43:15
38,44:7
38,45:15
38,49:5
39,2:5
39,20:2
39,21:2
39,27:2
39,30:2
39,31:5
39,34:2
39,35:8
39,40:8
39,42:8
41,2:14
41,3:5
41,4:7
41,5:6
41,6:5
41,7:2
41,8:9
41,10:7
41,11:9
41,12:5
41,13:2
41,14:9
41,15:9
41,17:3
41,18:9
41,19:2
41,20:11
41,21:11
41,22:3
41,23:2
41,24:3
41,26:6
41,27:11
41,28:5
41,29:6
41,30:11
41,31:14
41,33:6
41,34:11
41,35:17
41,38:2
41,39:9
41,40:17
41,44:9
44,2:5
44,20:2
44,21:2
44,27:2
44,30:2
44,31:5
44,34:2
44,35:8
44,40:8
44,42:8
44,43:8
46,2:12
46,3:3
46,4:5
46,5:4
46,6:3
46,8:7
46,10:5
46,11:7
46,12:3
46,14:7
46,15:7
46,17:1
46,18:7
46,20:9
46,21:9
46,22:1
46,24:1
46,26:4
46,27:9
46,28:3
46,29:4
46,30:9
46,31:12
46,33:4
46,34:9
46,35:15
46,39:7
46,40:15
46,42:15
46,43:15
46,44:7
46,45:15
46,49:5
47,2:12
47,3:3
47,4:5
47,5:4
47,6:3
47,8:7
47,10:5
47,11:7
47,12:3
47,14:7
47,15:7
47,17:1
47,18:7
47,20:9
47,21:9
47,22:1
47,24:1
47,26:4
47,27:9
47,28:3
47,29:4
47,30:9
47,31:12
47,33:4
47,34:9
47,35:15
47,39:7
47,40:15
47,42:15
47,43:15
47,44:7
47,45:15
47,49:5
48,2:12
48,3:3
48,4:5
48,5:4
48,6:3
48,8:7
48,10:5
48,11:7
48,12:3
48,14:7
48,15:7
48,17:1
48,18:7
48,20:9
48,21:9
48,22:1
48,24:1
48,26:4
48,27:9
48,28:3
48,29:4
48,30:9
48,31:12
48,33:4
48,34:9
48,35:15
48,39:7
48,40:15
48,42:15
48,43:15
48,44:7
48,45:15
48,49:5
48,56:17
49,2:7
49,8:2
49,11:2
49,14:2
49,15:2
49,18:2
49,20:4
49,21:4
49,27:4
49,30:4
49,31:7
49,34:4
49,35:10
49,39:2
49,40:10
49,42:10
49,43:10
49,44:2
49,45:10
49,55:12
49,56:12
49,57:12
50,2:12
50,3:3
50,4:5
50,5:4
50,6:3
50,8:7
50,10:5
50,11:7
50,12:3
50,14:7
50,15:7
50,17:1
50,18:7
50,20:9
50,21:9
50,22:1
50,24:1
50,26:4
50,27:9
50,28:3
50,29:4
50,30:9
50,31:12
50,33:4
50,34:9
50,35:15
50,39:7
50,40:15
50,42:15
50,43:15
50,44:7
50,45:15
50,49:5
50,55:17
50,56:17
50,57:17
51,2:16
51,3:7
51,4:9
51,5:8
51,6:7
51,7:4
51,8:11
51,10:9
51,11:11
51,12:7
51,13:4
51,14:11
51,15:11
51,17:5
51,18:11
51,19:4
51,20:13
51,21:13
51,22:5
51,23:4
51,24:5
51,25:2
51,26:8
51,27:13
51,28:7
51,29:8
51,30:13
51,31:16
51,33:8
51,34:13
51,35:19
51,36:2
51,37:2
51,38:4
51,39:11
51,40:19
51,41:2
51,42:19
51,43:19
51,44:11
51,45:19
51,46:4
51,47:4
51,48:4
51,49:9
51,50:4
52,2:16
52,3:7
52,4:9
52,5:8
52,6:7
52,7:4
52,8:11
52,10:9
52,11:11
52,12:7
52,13:4
52,14:11
52,15:11
52,17:5
52,18:11
52,19:4
52,20:13
52,21:13
52,22:5
52,23:4
52,24:5
52,25:2
52,26:8
52,27:13
52,28:7
52,29:8
52,30:13
52,31:16
52,33:8
52,34:13
52,35:19
52,36:2
52,37:2
52,38:4
52,39:11
52,40:19
52,41:2
52,42:19
52,43:19
52,44:11
52,45:19
52,46:4
52,47:4
52,48:4
52,49:9
52,50:4
53,2:16
53,3:7
53,4:9
53,5:8
53,6:7
53,7:4
53,8:11
53,10:9
53,11:11
53,12:7
53,13:4
53,14:11
53,15:11
53,17:5
53,18:11
53,19:4
53,20:13
53,21:13
53,22:5
53,23:4
53,24:5
53,25:2
53,26:8
53,27:13
53,28:7
53,29:8
53,30:13
53,31:16
53,33:8
53,34:13
53,35:19
53,36:2
53,37:2
53,38:4
53,39:11
53,40:19
53,41:2
53,42:19
53,43:19
53,44:11
53,45:19
53,46:4
53,47:4
53,48:4
53,49:9
53,50:4
54,2:16
54,3:7
54,4:9
54,5:8
54,6:7
54,7:4
54,8:11
54,10:9
54,11:11
54,12:7
54,13:4
54,14:11
54,15:11
54,17:5
54,18:11
54,19:4
54,20:13
54,21:13
54,22:5
54,23:4
54,24:5
54,25:2
54,26:8
54,27:13
54,28:7
54,29:8
54,30:13
54,31:16
54,33:8
54,34:13
54,35:19
54,36:2
54,37:2
54,38:4
54,39:11
54,40:19
54,41:2
54,42:19
54,43:19
54,44:11
54,45:19
54,46:4
54,47:4
54,48:4
54,49:9
54,50:4

<end>

<optimal SALBP-1 value>
15


<rand seed>
467321153

<Lower Bounds>
Lm1=15
Lms1=15
Lm2=3
Lm3=9
Lm4=15
Best=15

<Optimal Stations (Iterations: 10)>
19
